language Essence 1.3

letting length be 5 $ need to enumerate length 15 and higher. OEIS A113227, https://oeis.org/A113227
letting avoiding be {(sequence(1,4,2,3),relation((3,0),(3,1),(3,2),(3,3),(3,4)))}